Version identifier: 20.1.0.0 | 2020-11-10 | 9bedb6d68
Tried aggregator 11 times.
MIP Presolve eliminated 1165 rows and 773 columns.
MIP Presolve modified 1200 coefficients.
Aggregator did 198 substitutions.
All rows and columns eliminated.
Presolve time = 0.01 sec. (3.92 ticks)

Root node processing (before b&c):
  Real time             =    0.01 sec. (4.08 ticks)
Parallel b&c, 24 threads:
  Real time             =    0.00 sec. (0.00 ticks)
  Sync time (average)   =    0.00 sec.
  Wait time (average)   =    0.00 sec.
                          ------------
Total (root+branch&cut) =    0.01 sec. (4.08 ticks)

Solution status = Optimal
Solution LB = 6
Solution UB = 6
Runtime = 0.015883 seconds
	Command being timed: "/home/min/git_repos/CS598MEBProject/CNT-ILP/build/cnt -s 2 ./output/k4_n40/simC_c1_k4_n40_u2_s1_del02.input-left.cnp"
	User time (seconds): 0.02
	System time (seconds): 0.00
	Percent of CPU this job got: 96%
	Elapsed (wall clock) time (h:mm:ss or m:ss): 0:00.03
	Average shared text size (kbytes): 0
	Average unshared data size (kbytes): 0
	Average stack size (kbytes): 0
	Average total size (kbytes): 0
	Maximum resident set size (kbytes): 16500
	Average resident set size (kbytes): 0
	Major (requiring I/O) page faults: 0
	Minor (reclaiming a frame) page faults: 1127
	Voluntary context switches: 92
	Involuntary context switches: 1
	Swaps: 0
	File system inputs: 0
	File system outputs: 16
	Socket messages sent: 0
	Socket messages received: 0
	Signals delivered: 0
	Page size (bytes): 4096
	Exit status: 0
